peakDumbCharging = 18500; 
Machine = anon_enum(16); 
machineSpeed = [3700,3700,3700,3700,3700,3700,3700,3700,3700,3700,3700,3700,3700,3700,3700,3700]; 
machineLoad = [3700,3700,3700,3700,3700,3700,3700,3700,3700,3700,3700,3700,3700,3700,3700,3700]; 
Car = anon_enum(16); 
demandCar = [17120,4880,28720,4520,8040,11640,12400,13760,9880,8080,40,14680,6840,9120,25000,14640]; 
arrivalCar = [74,74,70,68,68,64,59,58,56,56,56,55,51,46,37,30]; 
departureCar = [82,77,79,70,71,68,64,63,68,59,57,60,55,49,46,64]; 
